NAME : optical-integer.-21152233.tour
COMMENT : Length = -21152233
COMMENT : Found by LKH [Keld Helsgaun] Wed May 19 13:29:48 2021
TYPE : TOUR
DIMENSION : 174
TOUR_SECTION
1
49
5
37
171
172
170
65
132
134
133
3
98
51
88
94
57
85
82
84
77
60
61
66
69
18
30
17
11
12
43
46
40
25
26
41
75
90
89
92
95
74
76
27
145
154
149
143
142
147
156
155
158
173
141
159
161
166
162
164
119
126
137
165
139
167
138
127
140
135
116
125
124
123
128
122
121
129
106
110
118
120
117
101
104
105
109
107
108
103
113
114
102
115
100
111
112
31
34
42
10
59
91
7
13
15
19
24
22
20
68
72
70
71
8
28
21
35
33
36
32
29
23
62
79
64
56
73
83
80
78
81
58
63
14
9
45
39
2
48
4
97
6
130
67
136
53
169
87
99
52
131
54
86
160
157
163
144
148
150
146
151
153
152
174
55
96
50
93
38
44
47
16
168
-1
EOF
